(declare-const X String)
; /^\x01\x02.{0,50}[a-zA-Z]{10}\x2fPK.{0,50}[a-zA-Z]{10}\x2f[a-zA-Z]{7}\.classPK/sR
(assert (not (str.in_re X (re.++ (str.to_re "/\u{1}\u{2}") ((_ re.loop 0 50) re.allchar) ((_ re.loop 10 10) (re.union (re.range "a" "z") (re.range "A" "Z"))) (str.to_re "/PK") ((_ re.loop 0 50) re.allchar) ((_ re.loop 10 10) (re.union (re.range "a" "z") (re.range "A" "Z"))) (str.to_re "/") ((_ re.loop 7 7) (re.union (re.range "a" "z") (re.range "A" "Z"))) (str.to_re ".classPK/sR\u{a}")))))
; /((\d){2})?(\s|-)?((\d){2,4})?(\s|-){1}((\d){8})$/
(assert (not (str.in_re X (re.++ (str.to_re "/") (re.opt ((_ re.loop 2 2) (re.range "0" "9"))) (re.opt (re.union (str.to_re "-") (str.to_re " ") (str.to_re "\u{9}") (str.to_re "\u{a}") (str.to_re "\u{c}") (str.to_re "\u{d}"))) (re.opt ((_ re.loop 2 4) (re.range "0" "9"))) ((_ re.loop 1 1) (re.union (str.to_re "-") (str.to_re " ") (str.to_re "\u{9}") (str.to_re "\u{a}") (str.to_re "\u{c}") (str.to_re "\u{d}"))) ((_ re.loop 8 8) (re.range "0" "9")) (str.to_re "/\u{a}")))))
; Host\x3aOnlineUser-Agent\x3Awww\x2Evip-se\x2Ecom
(assert (str.in_re X (str.to_re "Host:OnlineUser-Agent:www.vip-se.com\u{13}\u{a}")))
; OSSProxy\d+X-Mailer\x3Abacktrust\x2Ecom
(assert (str.in_re X (re.++ (str.to_re "OSSProxy") (re.+ (re.range "0" "9")) (str.to_re "X-Mailer:\u{13}backtrust.com\u{a}"))))
(check-sat)
